2
19
20
20 20 
1  15 1 15
2  3  1 6
3  15 1 45
8  4  1 32
7  8  1 56
1  11 1 11
1  2  2 2
6  3  1 18
2  11 1 22
4  11 1 44
6  2  1 12
3  3  1 9
3  14 1 42
6  4  1 24
13 2  1 26
1  7  1 7
1  3  1 3
2  4  1 8
4  2  1 8 


